(set-info :smt-lib-version 2.6)
(set-logic UFNIA)
(set-info :source |
Generated by: Geoff Sutcliffe
Generated on: 2026-03-11
Generator: TPTPWorld
Application: Benchmarking automated theorem provers
Time limit: 120.0

These benchmarks are translations from the TPTP Library (Thousands of
Problems for Theorem Provers), see http://www.cs.miami.edu/~tptp/

The TPTP is maintained by Geoff Sutcliffe, and he contributed this
selection of benchmarks to SMT-LIB.  They were exported from the
v9.2.1 realease of TPTP.
|)
(set-info :category "industrial")
(set-info :status unknown)
; SZS status Success
(declare-sort $$unsorted 0)
(declare-sort tptp.uni 0)
(declare-sort tptp.ty 0)
(declare-fun tptp.sort1 (tptp.ty tptp.uni) Bool)
(declare-fun tptp.witness1 (tptp.ty) tptp.uni)
(assert (forall ((A tptp.ty)) (tptp.sort1 A (tptp.witness1 A))))
(declare-fun tptp.int () tptp.ty)
(declare-fun tptp.real () tptp.ty)
(declare-sort tptp.bool1 0)
(declare-fun tptp.bool () tptp.ty)
(declare-fun tptp.true1 () tptp.bool1)
(declare-fun tptp.false1 () tptp.bool1)
(declare-fun tptp.match_bool1 (tptp.ty tptp.bool1 tptp.uni tptp.uni) tptp.uni)
(assert (forall ((A tptp.ty) (X tptp.bool1) (X1 tptp.uni) (X2 tptp.uni)) (tptp.sort1 A (tptp.match_bool1 A X X1 X2))))
(assert (forall ((A tptp.ty) (Z tptp.uni) (Z1 tptp.uni)) (=> (tptp.sort1 A Z) (= (tptp.match_bool1 A tptp.true1 Z Z1) Z))))
(assert (forall ((A tptp.ty) (Z tptp.uni) (Z1 tptp.uni)) (=> (tptp.sort1 A Z1) (= (tptp.match_bool1 A tptp.false1 Z Z1) Z1))))
(assert (not (= tptp.true1 tptp.false1)))
(assert (forall ((U tptp.bool1)) (or (= U tptp.true1) (= U tptp.false1))))
(declare-sort tptp.tuple02 0)
(declare-fun tptp.tuple0 () tptp.ty)
(declare-fun tptp.tuple03 () tptp.tuple02)
(assert (forall ((U tptp.tuple02)) (= U tptp.tuple03)))
(declare-fun tptp.qtmark () tptp.ty)
(assert (forall ((X Int) (Y Int) (Z Int)) (=> (<= X Y) (=> (<= 0 Z) (<= (* X Z) (* Y Z))))))
(declare-fun tptp.ref (tptp.ty) tptp.ty)
(declare-fun tptp.mk_ref (tptp.ty tptp.uni) tptp.uni)
(assert (forall ((A tptp.ty) (X tptp.uni)) (tptp.sort1 (tptp.ref A) (tptp.mk_ref A X))))
(declare-fun tptp.contents (tptp.ty tptp.uni) tptp.uni)
(assert (forall ((A tptp.ty) (X tptp.uni)) (tptp.sort1 A (tptp.contents A X))))
(assert (forall ((A tptp.ty) (U tptp.uni)) (=> (tptp.sort1 A U) (= (tptp.contents A (tptp.mk_ref A U)) U))))
(assert (forall ((A tptp.ty) (U tptp.uni)) (=> (tptp.sort1 (tptp.ref A) U) (= U (tptp.mk_ref A (tptp.contents A U))))))
(declare-fun tptp.map (tptp.ty tptp.ty) tptp.ty)
(declare-fun tptp.get (tptp.ty tptp.ty tptp.uni tptp.uni) tptp.uni)
(assert (forall ((A tptp.ty) (B tptp.ty) (X tptp.uni) (X1 tptp.uni)) (tptp.sort1 B (tptp.get B A X X1))))
(declare-sort tptp.map_int_int 0)
(declare-fun tptp.get3 (tptp.map_int_int Int) Int)
(declare-fun tptp.set (tptp.ty tptp.ty tptp.uni tptp.uni tptp.uni) tptp.uni)
(assert (forall ((A tptp.ty) (B tptp.ty) (X tptp.uni) (X1 tptp.uni) (X2 tptp.uni)) (tptp.sort1 (tptp.map A B) (tptp.set B A X X1 X2))))
(declare-fun tptp.t2tb (tptp.map_int_int) tptp.uni)
(assert (forall ((X tptp.map_int_int)) (tptp.sort1 (tptp.map tptp.int tptp.int) (tptp.t2tb X))))
(declare-fun tptp.tb2t (tptp.uni) tptp.map_int_int)
(assert (forall ((I tptp.map_int_int)) (= (tptp.tb2t (tptp.t2tb I)) I)))
(assert (forall ((J tptp.uni)) (= (tptp.t2tb (tptp.tb2t J)) J)))
(declare-fun tptp.t2tb1 (Int) tptp.uni)
(assert (forall ((X Int)) (tptp.sort1 tptp.int (tptp.t2tb1 X))))
(declare-fun tptp.tb2t1 (tptp.uni) Int)
(assert (forall ((I Int)) (= (tptp.tb2t1 (tptp.t2tb1 I)) I)))
(assert (forall ((J tptp.uni)) (= (tptp.t2tb1 (tptp.tb2t1 J)) J)))
(assert (forall ((M tptp.map_int_int) (A1 Int) (A2 Int) (B Int)) (=> (= A1 A2) (= (tptp.get3 (tptp.tb2t (tptp.set tptp.int tptp.int (tptp.t2tb M) (tptp.t2tb1 A1) (tptp.t2tb1 B))) A2) B))))
(assert (forall ((A tptp.ty) (B tptp.ty) (M tptp.uni) (A1 tptp.uni) (A2 tptp.uni) (B1 tptp.uni)) (=> (tptp.sort1 B B1) (=> (= A1 A2) (= (tptp.get B A (tptp.set B A M A1 B1) A2) B1)))))
(assert (forall ((M tptp.map_int_int) (A1 Int) (A2 Int) (B Int)) (=> (not (= A1 A2)) (= (tptp.get3 (tptp.tb2t (tptp.set tptp.int tptp.int (tptp.t2tb M) (tptp.t2tb1 A1) (tptp.t2tb1 B))) A2) (tptp.get3 M A2)))))
(assert (forall ((A tptp.ty) (B tptp.ty) (M tptp.uni) (A1 tptp.uni) (A2 tptp.uni)) (=> (tptp.sort1 A A1) (=> (tptp.sort1 A A2) (forall ((B1 tptp.uni)) (=> (not (= A1 A2)) (= (tptp.get B A (tptp.set B A M A1 B1) A2) (tptp.get B A M A2))))))))
(declare-fun tptp.const (tptp.ty tptp.ty tptp.uni) tptp.uni)
(assert (forall ((A tptp.ty) (B tptp.ty) (X tptp.uni)) (tptp.sort1 (tptp.map A B) (tptp.const B A X))))
(assert (forall ((B Int) (A Int)) (= (tptp.get3 (tptp.tb2t (tptp.const tptp.int tptp.int (tptp.t2tb1 B))) A) B)))
(assert (forall ((A tptp.ty) (B tptp.ty) (B1 tptp.uni) (A1 tptp.uni)) (=> (tptp.sort1 B B1) (= (tptp.get B A (tptp.const B A B1) A1) B1))))
(declare-fun tptp.array (tptp.ty) tptp.ty)
(declare-fun tptp.mk_array2 (tptp.ty Int tptp.uni) tptp.uni)
(assert (forall ((A tptp.ty) (X Int) (X1 tptp.uni)) (tptp.sort1 (tptp.array A) (tptp.mk_array2 A X X1))))
(declare-sort tptp.array_int 0)
(declare-fun tptp.mk_array3 (Int tptp.map_int_int) tptp.array_int)
(declare-fun tptp.length2 (tptp.ty tptp.uni) Int)
(declare-fun tptp.t2tb2 (tptp.array_int) tptp.uni)
(assert (forall ((X tptp.array_int)) (tptp.sort1 (tptp.array tptp.int) (tptp.t2tb2 X))))
(declare-fun tptp.tb2t2 (tptp.uni) tptp.array_int)
(assert (forall ((I tptp.array_int)) (= (tptp.tb2t2 (tptp.t2tb2 I)) I)))
(assert (forall ((J tptp.uni)) (= (tptp.t2tb2 (tptp.tb2t2 J)) J)))
(assert (forall ((U Int) (U1 tptp.map_int_int)) (= (tptp.length2 tptp.int (tptp.t2tb2 (tptp.mk_array3 U U1))) U)))
(assert (forall ((A tptp.ty) (U Int) (U1 tptp.uni)) (= (tptp.length2 A (tptp.mk_array2 A U U1)) U)))
(declare-fun tptp.elts (tptp.ty tptp.uni) tptp.uni)
(assert (forall ((A tptp.ty) (X tptp.uni)) (tptp.sort1 (tptp.map tptp.int A) (tptp.elts A X))))
(assert (forall ((U Int) (U1 tptp.map_int_int)) (= (tptp.tb2t (tptp.elts tptp.int (tptp.t2tb2 (tptp.mk_array3 U U1)))) U1)))
(assert (forall ((A tptp.ty) (U Int) (U1 tptp.uni)) (=> (tptp.sort1 (tptp.map tptp.int A) U1) (= (tptp.elts A (tptp.mk_array2 A U U1)) U1))))
(assert (forall ((U tptp.array_int)) (let ((_let_1 (tptp.t2tb2 U))) (= U (tptp.mk_array3 (tptp.length2 tptp.int _let_1) (tptp.tb2t (tptp.elts tptp.int _let_1)))))))
(assert (forall ((A tptp.ty) (U tptp.uni)) (= U (tptp.mk_array2 A (tptp.length2 A U) (tptp.elts A U)))))
(declare-fun tptp.get4 (tptp.ty tptp.uni Int) tptp.uni)
(assert (forall ((A tptp.ty) (X tptp.uni) (X1 Int)) (tptp.sort1 A (tptp.get4 A X X1))))
(assert (forall ((A tptp.array_int) (I Int)) (let ((_let_1 (tptp.t2tb2 A))) (= (tptp.tb2t1 (tptp.get4 tptp.int _let_1 I)) (tptp.get3 (tptp.tb2t (tptp.elts tptp.int _let_1)) I)))))
(assert (forall ((A tptp.ty) (A1 tptp.uni) (I Int)) (= (tptp.get4 A A1 I) (tptp.get A tptp.int (tptp.elts A A1) (tptp.t2tb1 I)))))
(declare-fun tptp.set2 (tptp.ty tptp.uni Int tptp.uni) tptp.uni)
(assert (forall ((A tptp.ty) (X tptp.uni) (X1 Int) (X2 tptp.uni)) (tptp.sort1 (tptp.array A) (tptp.set2 A X X1 X2))))
(assert (forall ((A tptp.array_int) (I Int) (V Int)) (let ((_let_1 (tptp.t2tb1 V))) (let ((_let_2 (tptp.t2tb2 A))) (= (tptp.tb2t2 (tptp.set2 tptp.int _let_2 I _let_1)) (tptp.mk_array3 (tptp.length2 tptp.int _let_2) (tptp.tb2t (tptp.set tptp.int tptp.int (tptp.elts tptp.int _let_2) (tptp.t2tb1 I) _let_1))))))))
(assert (forall ((A tptp.ty) (A1 tptp.uni) (I Int) (V tptp.uni)) (= (tptp.set2 A A1 I V) (tptp.mk_array2 A (tptp.length2 A A1) (tptp.set A tptp.int (tptp.elts A A1) (tptp.t2tb1 I) V)))))
(declare-fun tptp.make1 (tptp.ty Int tptp.uni) tptp.uni)
(assert (forall ((A tptp.ty) (X Int) (X1 tptp.uni)) (tptp.sort1 (tptp.array A) (tptp.make1 A X X1))))
(assert (forall ((N Int) (V Int)) (let ((_let_1 (tptp.t2tb1 V))) (= (tptp.tb2t2 (tptp.make1 tptp.int N _let_1)) (tptp.mk_array3 N (tptp.tb2t (tptp.const tptp.int tptp.int _let_1)))))))
(assert (forall ((A tptp.ty) (N Int) (V tptp.uni)) (= (tptp.make1 A N V) (tptp.mk_array2 A N (tptp.const A tptp.int V)))))
(declare-fun tptp.occ2 (tptp.ty tptp.uni tptp.uni Int Int) Int)
(assert (forall ((A tptp.ty) (V tptp.uni) (M tptp.uni) (L Int) (U Int)) (=> (<= U L) (= (tptp.occ2 A V M L U) 0))))
(assert (forall ((V Int) (M tptp.map_int_int) (L Int) (U Int)) (let ((_let_1 (- U 1))) (let ((_let_2 (tptp.t2tb M))) (let ((_let_3 (tptp.t2tb1 V))) (=> (< L U) (=> (not (= (tptp.get3 M _let_1) V)) (= (tptp.occ2 tptp.int _let_3 _let_2 L U) (tptp.occ2 tptp.int _let_3 _let_2 L _let_1)))))))))
(assert (forall ((A tptp.ty) (V tptp.uni) (M tptp.uni) (L Int) (U Int)) (let ((_let_1 (- U 1))) (=> (tptp.sort1 A V) (=> (< L U) (=> (not (= (tptp.get A tptp.int M (tptp.t2tb1 _let_1)) V)) (= (tptp.occ2 A V M L U) (tptp.occ2 A V M L _let_1))))))))
(assert (forall ((V Int) (M tptp.map_int_int) (L Int) (U Int)) (let ((_let_1 (- U 1))) (let ((_let_2 (tptp.t2tb M))) (let ((_let_3 (tptp.t2tb1 V))) (=> (< L U) (=> (= (tptp.get3 M _let_1) V) (= (tptp.occ2 tptp.int _let_3 _let_2 L U) (+ 1 (tptp.occ2 tptp.int _let_3 _let_2 L _let_1))))))))))
(assert (forall ((A tptp.ty) (V tptp.uni) (M tptp.uni) (L Int) (U Int)) (let ((_let_1 (- U 1))) (=> (< L U) (=> (= (tptp.get A tptp.int M (tptp.t2tb1 _let_1)) V) (= (tptp.occ2 A V M L U) (+ 1 (tptp.occ2 A V M L _let_1))))))))
(assert (forall ((A tptp.ty) (V tptp.uni) (M tptp.uni) (L Int) (U Int)) (let ((_let_1 (tptp.occ2 A V M L U))) (=> (<= L U) (and (<= 0 _let_1) (<= _let_1 (- U L)))))))
(assert (forall ((A tptp.ty) (V tptp.uni) (M tptp.uni) (L Int) (Mid Int) (U Int)) (=> (and (<= L Mid) (<= Mid U)) (= (tptp.occ2 A V M L U) (+ (tptp.occ2 A V M L Mid) (tptp.occ2 A V M Mid U))))))
(assert (forall ((V Int) (M tptp.map_int_int) (L Int) (U Int)) (=> (forall ((I Int)) (=> (and (<= L I) (< I U)) (not (= (tptp.get3 M I) V)))) (= (tptp.occ2 tptp.int (tptp.t2tb1 V) (tptp.t2tb M) L U) 0))))
(assert (forall ((A tptp.ty) (V tptp.uni) (M tptp.uni) (L Int) (U Int)) (=> (tptp.sort1 A V) (=> (forall ((I Int)) (=> (and (<= L I) (< I U)) (not (= (tptp.get A tptp.int M (tptp.t2tb1 I)) V)))) (= (tptp.occ2 A V M L U) 0)))))
(assert (forall ((V Int) (M tptp.map_int_int) (L Int) (U Int)) (=> (< 0 (tptp.occ2 tptp.int (tptp.t2tb1 V) (tptp.t2tb M) L U)) (exists ((I Int)) (and (<= L I) (< I U) (= (tptp.get3 M I) V))))))
(assert (forall ((A tptp.ty) (V tptp.uni) (M tptp.uni) (L Int) (U Int)) (=> (tptp.sort1 A V) (=> (< 0 (tptp.occ2 A V M L U)) (exists ((I Int)) (and (<= L I) (< I U) (= (tptp.get A tptp.int M (tptp.t2tb1 I)) V)))))))
(assert (forall ((M tptp.map_int_int) (L Int) (U Int) (I Int)) (=> (and (<= L I) (< I U)) (< 0 (tptp.occ2 tptp.int (tptp.t2tb1 (tptp.get3 M I)) (tptp.t2tb M) L U)))))
(assert (forall ((A tptp.ty) (M tptp.uni) (L Int) (U Int) (I Int)) (=> (and (<= L I) (< I U)) (< 0 (tptp.occ2 A (tptp.get A tptp.int M (tptp.t2tb1 I)) M L U)))))
(assert (forall ((V Int) (M1 tptp.map_int_int) (M2 tptp.map_int_int) (L Int) (U Int)) (let ((_let_1 (tptp.t2tb1 V))) (=> (forall ((I Int)) (=> (and (<= L I) (< I U)) (= (tptp.get3 M1 I) (tptp.get3 M2 I)))) (= (tptp.occ2 tptp.int _let_1 (tptp.t2tb M1) L U) (tptp.occ2 tptp.int _let_1 (tptp.t2tb M2) L U))))))
(assert (forall ((A tptp.ty) (V tptp.uni) (M1 tptp.uni) (M2 tptp.uni) (L Int) (U Int)) (=> (forall ((I Int)) (let ((_let_1 (tptp.t2tb1 I))) (=> (and (<= L I) (< I U)) (= (tptp.get A tptp.int M1 _let_1) (tptp.get A tptp.int M2 _let_1))))) (= (tptp.occ2 A V M1 L U) (tptp.occ2 A V M2 L U)))))
(declare-fun tptp.permut2 (tptp.ty tptp.uni tptp.uni Int Int) Bool)
(assert (forall ((A tptp.ty) (M1 tptp.uni) (M2 tptp.uni) (L Int) (U Int)) (let ((_let_1 (tptp.permut2 A M1 M2 L U))) (and (=> _let_1 (forall ((V tptp.uni)) (= (tptp.occ2 A V M1 L U) (tptp.occ2 A V M2 L U)))) (=> (forall ((V tptp.uni)) (=> (tptp.sort1 A V) (= (tptp.occ2 A V M1 L U) (tptp.occ2 A V M2 L U)))) _let_1)))))
(assert (forall ((A tptp.ty) (A1 tptp.uni) (A2 tptp.uni) (A3 tptp.uni) (L Int) (U Int)) (=> (tptp.permut2 A A1 A2 L U) (=> (tptp.permut2 A A2 A3 L U) (tptp.permut2 A A1 A3 L U)))))
(assert (forall ((A1 tptp.map_int_int) (A2 tptp.map_int_int) (L Int) (U Int) (I Int)) (=> (tptp.permut2 tptp.int (tptp.t2tb A1) (tptp.t2tb A2) L U) (=> (and (<= L I) (< I U)) (exists ((J Int)) (and (<= L J) (< J U) (= (tptp.get3 A1 J) (tptp.get3 A2 I))))))))
(assert (forall ((A tptp.ty) (A1 tptp.uni) (A2 tptp.uni) (L Int) (U Int) (I Int)) (=> (tptp.permut2 A A1 A2 L U) (=> (and (<= L I) (< I U)) (exists ((J Int)) (and (<= L J) (< J U) (= (tptp.get A tptp.int A1 (tptp.t2tb1 J)) (tptp.get A tptp.int A2 (tptp.t2tb1 I)))))))))
(declare-fun tptp.map_eq_sub1 (tptp.ty tptp.uni tptp.uni Int Int) Bool)
(assert (forall ((A1 tptp.map_int_int) (A2 tptp.map_int_int) (L Int) (U Int)) (= (tptp.map_eq_sub1 tptp.int (tptp.t2tb A1) (tptp.t2tb A2) L U) (forall ((I Int)) (=> (and (<= L I) (< I U)) (= (tptp.get3 A1 I) (tptp.get3 A2 I)))))))
(assert (forall ((A tptp.ty) (A1 tptp.uni) (A2 tptp.uni) (L Int) (U Int)) (= (tptp.map_eq_sub1 A A1 A2 L U) (forall ((I Int)) (let ((_let_1 (tptp.t2tb1 I))) (=> (and (<= L I) (< I U)) (= (tptp.get A tptp.int A1 _let_1) (tptp.get A tptp.int A2 _let_1))))))))
(declare-fun tptp.array_eq_sub1 (tptp.ty tptp.uni tptp.uni Int Int) Bool)
(assert (forall ((A tptp.ty) (A1 tptp.uni) (A2 tptp.uni) (L Int) (U Int)) (let ((_let_1 (tptp.length2 A A1))) (= (tptp.array_eq_sub1 A A1 A2 L U) (and (= _let_1 (tptp.length2 A A2)) (<= 0 L) (<= L _let_1) (<= 0 U) (<= U _let_1) (tptp.map_eq_sub1 A (tptp.elts A A1) (tptp.elts A A2) L U))))))
(declare-fun tptp.array_eq (tptp.ty tptp.uni tptp.uni) Bool)
(assert (forall ((A tptp.ty) (A1 tptp.uni) (A2 tptp.uni)) (let ((_let_1 (tptp.length2 A A1))) (= (tptp.array_eq A A1 A2) (and (= _let_1 (tptp.length2 A A2)) (tptp.map_eq_sub1 A (tptp.elts A A1) (tptp.elts A A2) 0 _let_1))))))
(declare-fun tptp.exchange2 (tptp.ty tptp.uni tptp.uni Int Int Int Int) Bool)
(assert (forall ((A1 tptp.map_int_int) (A2 tptp.map_int_int) (L Int) (U Int) (I Int) (J Int)) (= (tptp.exchange2 tptp.int (tptp.t2tb A1) (tptp.t2tb A2) L U I J) (and (<= L I) (< I U) (<= L J) (< J U) (= (tptp.get3 A1 I) (tptp.get3 A2 J)) (= (tptp.get3 A1 J) (tptp.get3 A2 I)) (forall ((K Int)) (=> (and (<= L K) (< K U)) (=> (not (= K I)) (=> (not (= K J)) (= (tptp.get3 A1 K) (tptp.get3 A2 K))))))))))
(assert (forall ((A tptp.ty) (A1 tptp.uni) (A2 tptp.uni) (L Int) (U Int) (I Int) (J Int)) (let ((_let_1 (tptp.t2tb1 I))) (let ((_let_2 (tptp.t2tb1 J))) (= (tptp.exchange2 A A1 A2 L U I J) (and (<= L I) (< I U) (<= L J) (< J U) (= (tptp.get A tptp.int A1 _let_1) (tptp.get A tptp.int A2 _let_2)) (= (tptp.get A tptp.int A1 _let_2) (tptp.get A tptp.int A2 _let_1)) (forall ((K Int)) (let ((_let_1 (tptp.t2tb1 K))) (=> (and (<= L K) (< K U)) (=> (not (= K I)) (=> (not (= K J)) (= (tptp.get A tptp.int A1 _let_1) (tptp.get A tptp.int A2 _let_1)))))))))))))
(assert (forall ((A tptp.map_int_int) (L Int) (U Int) (I Int) (J Int)) (let ((_let_1 (tptp.t2tb A))) (=> (and (<= L I) (< I U)) (=> (and (<= L J) (< J U)) (tptp.exchange2 tptp.int _let_1 (tptp.set tptp.int tptp.int (tptp.set tptp.int tptp.int _let_1 (tptp.t2tb1 I) (tptp.t2tb1 (tptp.get3 A J))) (tptp.t2tb1 J) (tptp.t2tb1 (tptp.get3 A I))) L U I J))))))
(assert (forall ((A tptp.ty) (A1 tptp.uni) (L Int) (U Int) (I Int) (J Int)) (let ((_let_1 (tptp.t2tb1 I))) (let ((_let_2 (tptp.t2tb1 J))) (=> (and (<= L I) (< I U)) (=> (and (<= L J) (< J U)) (tptp.exchange2 A A1 (tptp.set A tptp.int (tptp.set A tptp.int A1 _let_1 (tptp.get A tptp.int A1 _let_2)) _let_2 (tptp.get A tptp.int A1 _let_1)) L U I J)))))))
(declare-fun tptp.exchange3 (tptp.ty tptp.uni tptp.uni Int Int) Bool)
(declare-fun tptp.exchange4 (tptp.array_int tptp.array_int Int Int) Bool)
(assert (forall ((A1 tptp.array_int) (A2 tptp.array_int) (I Int) (J Int)) (let ((_let_1 (tptp.t2tb2 A1))) (let ((_let_2 (tptp.length2 tptp.int _let_1))) (let ((_let_3 (tptp.t2tb2 A2))) (= (tptp.exchange4 A1 A2 I J) (and (= _let_2 (tptp.length2 tptp.int _let_3)) (tptp.exchange2 tptp.int (tptp.elts tptp.int _let_1) (tptp.elts tptp.int _let_3) 0 _let_2 I J))))))))
(assert (forall ((A tptp.ty) (A1 tptp.uni) (A2 tptp.uni) (I Int) (J Int)) (let ((_let_1 (tptp.length2 A A1))) (= (tptp.exchange3 A A1 A2 I J) (and (= _let_1 (tptp.length2 A A2)) (tptp.exchange2 A (tptp.elts A A1) (tptp.elts A A2) 0 _let_1 I J))))))
(declare-fun tptp.permut3 (tptp.ty tptp.uni tptp.uni Int Int) Bool)
(assert (forall ((A tptp.ty) (A1 tptp.uni) (A2 tptp.uni) (L Int) (U Int)) (let ((_let_1 (tptp.length2 A A1))) (= (tptp.permut3 A A1 A2 L U) (and (= _let_1 (tptp.length2 A A2)) (<= 0 L) (<= L _let_1) (<= 0 U) (<= U _let_1) (tptp.permut2 A (tptp.elts A A1) (tptp.elts A A2) L U))))))
(declare-fun tptp.permut_sub1 (tptp.ty tptp.uni tptp.uni Int Int) Bool)
(declare-fun tptp.permut_sub2 (tptp.array_int tptp.array_int Int Int) Bool)
(assert (forall ((A1 tptp.array_int) (A2 tptp.array_int) (L Int) (U Int)) (let ((_let_1 (tptp.t2tb2 A1))) (let ((_let_2 (tptp.t2tb2 A2))) (let ((_let_3 (tptp.elts tptp.int _let_2))) (let ((_let_4 (tptp.elts tptp.int _let_1))) (= (tptp.permut_sub2 A1 A2 L U) (and (tptp.map_eq_sub1 tptp.int _let_4 _let_3 0 L) (tptp.permut3 tptp.int _let_1 _let_2 L U) (tptp.map_eq_sub1 tptp.int _let_4 _let_3 U (tptp.length2 tptp.int _let_1))))))))))
(assert (forall ((A tptp.ty) (A1 tptp.uni) (A2 tptp.uni) (L Int) (U Int)) (let ((_let_1 (tptp.elts A A2))) (let ((_let_2 (tptp.elts A A1))) (= (tptp.permut_sub1 A A1 A2 L U) (and (tptp.map_eq_sub1 A _let_2 _let_1 0 L) (tptp.permut3 A A1 A2 L U) (tptp.map_eq_sub1 A _let_2 _let_1 U (tptp.length2 A A1))))))))
(declare-fun tptp.permut_all (tptp.ty tptp.uni tptp.uni) Bool)
(assert (forall ((A tptp.ty) (A1 tptp.uni) (A2 tptp.uni)) (let ((_let_1 (tptp.length2 A A1))) (= (tptp.permut_all A A1 A2) (and (= _let_1 (tptp.length2 A A2)) (tptp.permut2 A (tptp.elts A A1) (tptp.elts A A2) 0 _let_1))))))
(assert (forall ((A1 tptp.array_int) (A2 tptp.array_int) (I Int) (J Int) (L Int) (U Int)) (=> (tptp.exchange4 A1 A2 I J) (=> (and (<= L I) (< I U)) (=> (and (<= L J) (< J U)) (=> (<= 0 L) (=> (<= U (tptp.length2 tptp.int (tptp.t2tb2 A1))) (tptp.permut_sub2 A1 A2 L U))))))))
(assert (forall ((A tptp.ty) (A1 tptp.uni) (A2 tptp.uni) (I Int) (J Int) (L Int) (U Int)) (=> (tptp.exchange3 A A1 A2 I J) (=> (and (<= L I) (< I U)) (=> (and (<= L J) (< J U)) (=> (<= 0 L) (=> (<= U (tptp.length2 A A1)) (tptp.permut_sub1 A A1 A2 L U))))))))
(assert (forall ((A1 tptp.array_int) (A2 tptp.array_int) (L1 Int) (U1 Int) (L2 Int) (U2 Int)) (=> (tptp.permut_sub2 A1 A2 L1 U1) (=> (and (<= 0 L2) (<= L2 L1)) (=> (and (<= U1 U2) (<= U2 (tptp.length2 tptp.int (tptp.t2tb2 A1)))) (tptp.permut_sub2 A1 A2 L2 U2))))))
(assert (forall ((A tptp.ty) (A1 tptp.uni) (A2 tptp.uni) (L1 Int) (U1 Int) (L2 Int) (U2 Int)) (=> (tptp.permut_sub1 A A1 A2 L1 U1) (=> (and (<= 0 L2) (<= L2 L1)) (=> (and (<= U1 U2) (<= U2 (tptp.length2 A A1))) (tptp.permut_sub1 A A1 A2 L2 U2))))))
(assert (forall ((A1 tptp.array_int) (A2 tptp.array_int) (I Int) (J Int)) (=> (tptp.exchange4 A1 A2 I J) (tptp.permut_all tptp.int (tptp.t2tb2 A1) (tptp.t2tb2 A2)))))
(assert (forall ((A tptp.ty) (A1 tptp.uni) (A2 tptp.uni) (I Int) (J Int)) (=> (tptp.exchange3 A A1 A2 I J) (tptp.permut_all A A1 A2))))
(assert (not (forall ((A Int) (A1 tptp.map_int_int) (M Int) (N Int)) (=> (and (<= 0 A) (<= 0 M) (< M N) (< N A)) (forall ((F Int)) (=> (and (<= M F) (<= F N)) (=> (and (<= 0 F) (< F A)) (forall ((Ghx Int)) (=> (= Ghx (tptp.get3 A1 F)) (forall ((I Int)) (=> (= I M) (forall ((J Int)) (let ((_let_1 (tptp.get3 A1 F))) (let ((_let_2 (tptp.mk_array3 A A1))) (=> (= J N) (=> (and (<= M J) (<= J N) (<= M I) (<= I N) (tptp.permut_sub2 _let_2 _let_2 M (+ N 1)) (forall ((R Int)) (=> (and (<= M R) (< R I)) (<= (tptp.get3 A1 R) (tptp.get3 A1 F)))) (forall ((R Int)) (=> (and (< J R) (<= R N)) (<= (tptp.get3 A1 F) (tptp.get3 A1 R)))) (= _let_1 _let_1)) (forall ((J1 Int) (I1 Int) (A2 tptp.map_int_int)) (let ((_let_1 (<= M J1))) (let ((_let_2 (= I1 N))) (let ((_let_3 (= J1 I1))) (let ((_let_4 (tptp.get3 A1 F))) (=> (and (<= 0 A) _let_1 (<= J1 I1) (<= I1 N) (tptp.permut_sub2 (tptp.mk_array3 A A1) (tptp.mk_array3 A A2) M (+ N 1)) (or _let_2 (< _let_4 (tptp.get3 A2 I1))) (or (= J1 M) (< (tptp.get3 A2 J1) _let_4)) (= (tptp.get3 A2 F) _let_4) (forall ((R Int)) (=> (and (<= M R) (< R I1)) (<= (tptp.get3 A2 R) (tptp.get3 A1 F)))) (forall ((R Int)) (=> (and (< J1 R) (<= R N)) (<= (tptp.get3 A1 F) (tptp.get3 A2 R))))) (=> (or (< J1 I1) (and _let_3 (= I1 M)) (and _let_3 _let_2)) (=> (not (< I1 F)) (=> (< F J1) (=> (and (<= 0 M) (<= M F) (<= F N) (< N A) _let_1 (<= J1 N)) (forall ((A3 tptp.map_int_int)) (let ((_let_1 (tptp.mk_array3 A A3))) (let ((_let_2 (tptp.mk_array3 A A2))) (=> (and (<= 0 A) (tptp.exchange4 _let_2 _let_1 F J1) (tptp.permut_sub2 _let_2 _let_1 M (+ N 1))) (forall ((J2 Int)) (=> (= J2 (- J1 1)) (forall ((R Int)) (=> (and (<= I1 R) (<= R N)) (<= Ghx (tptp.get3 A3 R))))))))))))))))))))))))))))))))))))
(check-sat)
(exit)
